p edge 200 1990
e 1 5
e 1 6
e 1 25
e 1 37
e 1 39
e 1 44
e 1 55
e 1 69
e 1 74
e 1 80
e 1 104
e 1 110
e 1 119
e 1 121
e 1 125
e 1 145
e 1 152
e 1 160
e 2 25
e 2 29
e 2 41
e 2 55
e 2 60
e 2 95
e 2 97
e 2 98
e 2 109
e 2 112
e 2 113
e 2 121
e 2 125
e 2 128
e 2 129
e 2 140
e 2 144
e 2 150
e 2 156
e 2 158
e 2 177
e 2 181
e 2 197
e 3 8
e 3 19
e 3 20
e 3 21
e 3 25
e 3 34
e 3 61
e 3 66
e 3 96
e 3 133
e 3 158
e 3 161
e 3 166
e 3 193
e 4 5
e 4 15
e 4 16
e 4 62
e 4 66
e 4 72
e 4 76
e 4 79
e 4 91
e 4 94
e 4 134
e 4 145
e 4 146
e 4 147
e 4 160
e 4 161
e 4 179
e 4 184
e 4 197
e 4 200
e 5 10
e 5 11
e 5 15
e 5 25
e 5 34
e 5 60
e 5 78
e 5 86
e 5 91
e 5 101
e 5 106
e 5 114
e 5 115
e 5 130
e 5 133
e 5 143
e 5 156
e 5 159
e 5 163
e 5 164
e 5 172
e 5 194
e 5 200
e 6 16
e 6 20
e 6 25
e 6 31
e 6 32
e 6 36
e 6 37
e 6 46
e 6 57
e 6 59
e 6 64
e 6 76
e 6 127
e 6 143
e 6 152
e 6 156
e 6 165
e 6 169
e 6 180
e 6 194
e 6 198
e 7 19
e 7 26
e 7 27
e 7 38
e 7 58
e 7 59
e 7 67
e 7 72
e 7 80
e 7 82
e 7 86
e 7 88
e 7 98
e 7 102
e 7 109
e 7 120
e 7 130
e 7 176
e 7 195
e 8 13
e 8 34
e 8 39
e 8 56
e 8 80
e 8 92
e 8 104
e 8 110
e 8 120
e 8 121
e 8 128
e 8 144
e 8 148
e 8 151
e 8 169
e 8 170
e 8 192
e 9 11
e 9 12
e 9 17
e 9 20
e 9 21
e 9 32
e 9 34
e 9 54
e 9 64
e 9 76
e 9 94
e 9 99
e 9 105
e 9 123
e 9 130
e 9 133
e 9 146
e 9 147
e 9 170
e 9 181
e 9 183
e 9 199
e 10 31
e 10 42
e 10 58
e 10 73
e 10 79
e 10 85
e 10 86
e 10 94
e 10 98
e 10 107
e 10 116
e 10 123
e 10 131
e 10 145
e 10 154
e 10 156
e 10 157
e 10 163
e 10 172
e 10 195
e 11 12
e 11 16
e 11 40
e 11 66
e 11 71
e 11 82
e 11 97
e 11 98
e 11 122
e 11 132
e 11 139
e 11 144
e 11 150
e 11 165
e 11 173
e 11 190
e 11 198
e 12 22
e 12 35
e 12 38
e 12 42
e 12 49
e 12 93
e 12 106
e 12 112
e 12 126
e 12 135
e 12 139
e 12 157
e 12 176
e 12 179
e 12 194
e 13 20
e 13 38
e 13 49
e 13 64
e 13 71
e 13 72
e 13 80
e 13 87
e 13 97
e 13 98
e 13 105
e 13 123
e 13 135
e 13 160
e 13 162
e 13 166
e 13 168
e 13 170
e 13 174
e 13 177
e 13 184
e 14 17
e 14 24
e 14 28
e 14 48
e 14 52
e 14 59
e 14 62
e 14 75
e 14 101
e 14 105
e 14 111
e 14 114
e 14 115
e 14 158
e 14 173
e 14 181
e 14 187
e 15 28
e 15 51
e 15 62
e 15 66
e 15 71
e 15 102
e 15 105
e 15 107
e 15 113
e 15 115
e 15 122
e 15 133
e 15 134
e 15 157
e 15 170
e 15 181
e 15 182
e 15 185
e 15 188
e 15 197
e 16 21
e 16 22
e 16 28
e 16 29
e 16 32
e 16 36
e 16 51
e 16 56
e 16 65
e 16 67
e 16 85
e 16 86
e 16 92
e 16 93
e 16 96
e 16 101
e 16 114
e 16 118
e 16 122
e 16 143
e 16 163
e 16 165
e 16 177
e 16 184
e 16 193
e 17 34
e 17 48
e 17 50
e 17 55
e 17 67
e 17 69
e 17 75
e 17 86
e 17 94
e 17 95
e 17 111
e 17 121
e 17 122
e 17 134
e 17 174
e 17 199
e 18 22
e 18 23
e 18 25
e 18 33
e 18 37
e 18 42
e 18 54
e 18 65
e 18 74
e 18 75
e 18 79
e 18 81
e 18 98
e 18 138
e 18 150
e 18 153
e 18 159
e 18 168
e 18 184
e 18 186
e 19 21
e 19 53
e 19 58
e 19 61
e 19 64
e 19 74
e 19 83
e 19 91
e 19 92
e 19 99
e 19 108
e 19 135
e 19 149
e 19 150
e 19 151
e 19 153
e 19 156
e 19 161
e 19 162
e 19 166
e 19 167
e 19 175
e 19 183
e 19 189
e 19 197
e 20 21
e 20 26
e 20 48
e 20 52
e 20 61
e 20 65
e 20 66
e 20 77
e 20 82
e 20 85
e 20 113
e 20 114
e 20 120
e 20 161
e 20 165
e 20 196
e 21 30
e 21 36
e 21 43
e 21 66
e 21 76
e 21 82
e 21 86
e 21 96
e 21 102
e 21 119
e 21 120
e 21 139
e 21 142
e 21 150
e 21 154
e 21 156
e 21 163
e 21 177
e 21 181
e 21 185
e 22 28
e 22 38
e 22 55
e 22 58
e 22 59
e 22 61
e 22 65
e 22 66
e 22 68
e 22 85
e 22 106
e 22 138
e 22 140
e 22 160
e 22 167
e 22 169
e 22 170
e 22 171
e 22 179
e 22 182
e 22 184
e 22 189
e 23 38
e 23 45
e 23 51
e 23 56
e 23 69
e 23 83
e 23 103
e 23 111
e 23 114
e 23 122
e 23 132
e 23 142
e 23 156
e 23 159
e 23 164
e 23 166
e 23 167
e 23 171
e 23 178
e 23 182
e 23 188
e 24 27
e 24 30
e 24 31
e 24 34
e 24 43
e 24 45
e 24 53
e 24 87
e 24 99
e 24 111
e 24 137
e 24 139
e 24 157
e 24 168
e 24 188
e 25 36
e 25 39
e 25 95
e 25 105
e 25 119
e 25 129
e 25 168
e 25 176
e 25 180
e 26 27
e 26 30
e 26 33
e 26 35
e 26 43
e 26 49
e 26 54
e 26 82
e 26 84
e 26 89
e 26 103
e 26 111
e 26 162
e 26 168
e 26 172
e 26 191
e 27 43
e 27 44
e 27 46
e 27 47
e 27 50
e 27 55
e 27 62
e 27 80
e 27 89
e 27 91
e 27 106
e 27 109
e 27 118
e 27 133
e 27 136
e 27 144
e 27 178
e 27 191
e 28 29
e 28 32
e 28 34
e 28 39
e 28 46
e 28 52
e 28 61
e 28 69
e 28 75
e 28 76
e 28 79
e 28 82
e 28 102
e 28 118
e 28 120
e 28 122
e 28 137
e 28 141
e 28 146
e 28 150
e 28 153
e 28 162
e 28 165
e 28 169
e 28 194
e 29 30
e 29 35
e 29 58
e 29 61
e 29 74
e 29 77
e 29 86
e 29 93
e 29 99
e 29 101
e 29 102
e 29 115
e 29 116
e 29 118
e 29 123
e 29 149
e 29 160
e 29 169
e 29 182
e 29 191
e 30 38
e 30 55
e 30 58
e 30 63
e 30 68
e 30 74
e 30 78
e 30 82
e 30 101
e 30 106
e 30 127
e 30 138
e 30 139
e 30 152
e 30 154
e 30 156
e 30 165
e 30 170
e 30 173
e 31 35
e 31 55
e 31 60
e 31 79
e 31 80
e 31 83
e 31 101
e 31 115
e 31 127
e 31 129
e 31 134
e 31 135
e 31 137
e 31 156
e 31 163
e 31 164
e 31 170
e 32 43
e 32 50
e 32 57
e 32 60
e 32 69
e 32 71
e 32 84
e 32 92
e 32 93
e 32 100
e 32 124
e 32 138
e 32 158
e 32 160
e 32 171
e 32 177
e 32 178
e 33 49
e 33 61
e 33 62
e 33 66
e 33 69
e 33 79
e 33 81
e 33 84
e 33 96
e 33 117
e 33 159
e 33 163
e 33 165
e 33 182
e 33 185
e 33 193
e 34 52
e 34 56
e 34 58
e 34 68
e 34 75
e 34 106
e 34 124
e 34 125
e 34 126
e 34 140
e 34 170
e 34 174
e 34 189
e 34 190
e 34 200
e 35 41
e 35 48
e 35 63
e 35 72
e 35 130
e 35 134
e 35 147
e 35 148
e 35 152
e 35 153
e 35 154
e 35 162
e 35 174
e 35 184
e 36 51
e 36 52
e 36 60
e 36 68
e 36 78
e 36 87
e 36 123
e 36 127
e 36 131
e 36 144
e 36 173
e 36 180
e 37 44
e 37 74
e 37 80
e 37 87
e 37 93
e 37 97
e 37 110
e 37 124
e 37 126
e 37 146
e 37 148
e 37 175
e 37 195
e 37 199
e 37 200
e 38 49
e 38 55
e 38 65
e 38 75
e 38 84
e 38 101
e 38 104
e 38 119
e 38 121
e 38 147
e 38 152
e 38 164
e 38 170
e 38 176
e 38 181
e 38 186
e 38 191
e 38 198
e 39 65
e 39 84
e 39 86
e 39 87
e 39 94
e 39 102
e 39 103
e 39 113
e 39 115
e 39 129
e 39 145
e 39 150
e 39 151
e 39 154
e 39 159
e 39 164
e 39 165
e 39 176
e 39 181
e 39 187
e 39 194
e 40 43
e 40 76
e 40 82
e 40 83
e 40 91
e 40 95
e 40 109
e 40 131
e 40 138
e 40 146
e 40 147
e 40 163
e 40 167
e 40 168
e 40 169
e 40 170
e 40 185
e 41 48
e 41 69
e 41 91
e 41 122
e 41 125
e 41 138
e 41 152
e 41 164
e 41 174
e 41 189
e 41 190
e 41 194
e 41 197
e 42 57
e 42 59
e 42 68
e 42 78
e 42 89
e 42 98
e 42 120
e 42 131
e 42 140
e 42 144
e 42 156
e 42 161
e 42 164
e 42 169
e 42 172
e 42 189
e 43 44
e 43 47
e 43 53
e 43 59
e 43 71
e 43 77
e 43 78
e 43 107
e 43 120
e 43 130
e 43 136
e 43 146
e 43 154
e 44 61
e 44 66
e 44 82
e 44 97
e 44 132
e 44 133
e 44 136
e 44 146
e 44 147
e 44 152
e 44 156
e 44 165
e 44 170
e 44 183
e 44 196
e 45 46
e 45 90
e 45 94
e 45 103
e 45 163
e 45 167
e 45 168
e 45 186
e 45 192
e 45 195
e 45 198
e 46 60
e 46 65
e 46 79
e 46 107
e 46 109
e 46 115
e 46 124
e 46 133
e 46 191
e 47 63
e 47 70
e 47 78
e 47 89
e 47 99
e 47 118
e 47 128
e 47 138
e 47 144
e 47 188
e 47 192
e 47 200
e 48 54
e 48 63
e 48 77
e 48 83
e 48 92
e 48 103
e 48 108
e 48 109
e 48 114
e 48 115
e 48 123
e 48 133
e 48 144
e 48 151
e 48 194
e 49 62
e 49 87
e 49 89
e 49 104
e 49 106
e 49 107
e 49 113
e 49 116
e 49 138
e 49 140
e 49 152
e 49 157
e 49 166
e 49 194
e 50 54
e 50 56
e 50 60
e 50 61
e 50 99
e 50 100
e 50 122
e 50 131
e 50 132
e 50 158
e 50 166
e 50 177
e 50 188
e 50 194
e 51 52
e 51 54
e 51 55
e 51 87
e 51 93
e 51 113
e 51 119
e 51 128
e 51 139
e 51 149
e 51 153
e 51 154
e 51 156
e 51 167
e 51 197
e 52 57
e 52 65
e 52 70
e 52 74
e 52 95
e 52 97
e 52 133
e 52 135
e 52 137
e 52 151
e 52 154
e 52 157
e 52 160
e 52 161
e 52 165
e 52 176
e 52 187
e 53 59
e 53 83
e 53 90
e 53 119
e 53 128
e 53 142
e 53 153
e 53 160
e 53 163
e 53 164
e 53 175
e 53 177
e 53 193
e 54 83
e 54 95
e 54 99
e 54 110
e 54 116
e 54 118
e 54 138
e 54 142
e 54 157
e 54 159
e 54 160
e 54 162
e 54 166
e 54 175
e 54 179
e 54 181
e 54 197
e 55 66
e 55 85
e 55 86
e 55 91
e 55 116
e 55 123
e 55 130
e 55 148
e 55 152
e 55 166
e 55 176
e 55 180
e 55 192
e 56 58
e 56 76
e 56 79
e 56 83
e 56 86
e 56 88
e 56 95
e 56 103
e 56 114
e 56 132
e 56 134
e 56 162
e 56 165
e 57 66
e 57 70
e 57 78
e 57 84
e 57 98
e 57 100
e 57 121
e 57 123
e 57 124
e 57 126
e 57 132
e 57 140
e 57 152
e 57 163
e 57 167
e 57 170
e 57 189
e 57 200
e 58 61
e 58 75
e 58 82
e 58 87
e 58 99
e 58 118
e 58 120
e 58 129
e 58 140
e 58 141
e 58 144
e 58 178
e 58 180
e 59 66
e 59 67
e 59 69
e 59 71
e 59 83
e 59 86
e 59 94
e 59 98
e 59 116
e 59 142
e 59 144
e 59 153
e 59 171
e 59 175
e 59 188
e 59 190
e 59 198
e 60 62
e 60 65
e 60 87
e 60 109
e 60 123
e 60 140
e 60 144
e 60 157
e 60 158
e 60 160
e 60 166
e 60 168
e 60 170
e 60 185
e 60 187
e 60 194
e 61 62
e 61 66
e 61 106
e 61 120
e 61 123
e 61 134
e 61 145
e 61 152
e 61 161
e 61 181
e 61 182
e 61 185
e 61 187
e 61 197
e 61 198
e 62 80
e 62 82
e 62 89
e 62 111
e 62 124
e 62 144
e 62 162
e 62 172
e 62 173
e 62 180
e 62 182
e 62 196
e 63 71
e 63 85
e 63 90
e 63 112
e 63 114
e 63 126
e 63 134
e 63 139
e 63 140
e 63 160
e 63 163
e 63 167
e 63 182
e 64 76
e 64 81
e 64 84
e 64 89
e 64 109
e 64 124
e 64 147
e 64 172
e 64 187
e 64 199
e 64 200
e 65 70
e 65 76
e 65 89
e 65 92
e 65 98
e 65 124
e 65 132
e 65 148
e 65 152
e 65 155
e 65 163
e 65 165
e 65 168
e 65 176
e 65 183
e 65 189
e 66 70
e 66 75
e 66 98
e 66 115
e 66 172
e 66 187
e 66 191
e 66 194
e 67 71
e 67 106
e 67 107
e 67 129
e 67 141
e 67 147
e 67 149
e 67 167
e 67 170
e 67 176
e 67 190
e 67 195
e 67 196
e 67 200
e 68 76
e 68 91
e 68 110
e 68 123
e 68 125
e 68 127
e 68 128
e 68 129
e 68 137
e 68 165
e 68 172
e 68 174
e 69 84
e 69 92
e 69 97
e 69 101
e 69 128
e 69 130
e 69 131
e 69 149
e 69 151
e 69 153
e 69 155
e 69 163
e 69 165
e 69 177
e 69 190
e 69 191
e 70 81
e 70 83
e 70 92
e 70 103
e 70 105
e 70 110
e 70 113
e 70 115
e 70 116
e 70 126
e 70 130
e 70 135
e 70 147
e 70 151
e 70 162
e 70 168
e 70 172
e 70 178
e 70 190
e 70 197
e 71 76
e 71 85
e 71 89
e 71 95
e 71 98
e 71 105
e 71 107
e 71 110
e 71 125
e 71 129
e 71 147
e 71 159
e 71 175
e 72 97
e 72 98
e 72 99
e 72 126
e 72 127
e 72 133
e 72 151
e 72 152
e 72 154
e 72 162
e 72 163
e 72 178
e 72 187
e 73 90
e 73 92
e 73 93
e 73 95
e 73 112
e 73 133
e 73 134
e 73 140
e 73 149
e 73 170
e 73 184
e 73 188
e 73 191
e 74 79
e 74 87
e 74 108
e 74 112
e 74 125
e 74 140
e 74 143
e 74 148
e 74 152
e 74 153
e 74 171
e 74 183
e 75 88
e 75 94
e 75 113
e 75 117
e 75 120
e 75 128
e 75 131
e 75 140
e 75 142
e 75 146
e 75 148
e 75 153
e 75 158
e 75 178
e 75 187
e 75 193
e 75 199
e 76 87
e 76 92
e 76 96
e 76 102
e 76 126
e 76 151
e 76 153
e 76 161
e 76 163
e 76 167
e 76 168
e 76 177
e 76 191
e 76 200
e 77 79
e 77 84
e 77 96
e 77 100
e 77 102
e 77 126
e 77 149
e 77 174
e 77 175
e 77 177
e 77 194
e 77 196
e 78 79
e 78 103
e 78 104
e 78 121
e 78 124
e 78 189
e 79 94
e 79 98
e 79 109
e 79 110
e 79 114
e 79 142
e 79 151
e 79 152
e 79 171
e 79 180
e 79 196
e 80 89
e 80 91
e 80 97
e 80 99
e 80 101
e 80 110
e 80 112
e 80 114
e 80 116
e 80 122
e 80 151
e 80 157
e 80 189
e 81 84
e 81 90
e 81 96
e 81 98
e 81 100
e 81 124
e 81 131
e 81 155
e 81 170
e 81 174
e 81 178
e 81 189
e 81 191
e 82 93
e 82 102
e 82 111
e 82 127
e 82 132
e 82 139
e 82 150
e 82 151
e 82 156
e 82 163
e 82 172
e 82 176
e 82 178
e 82 183
e 83 90
e 83 93
e 83 95
e 83 106
e 83 107
e 83 112
e 83 132
e 83 137
e 83 152
e 83 161
e 83 164
e 83 189
e 84 92
e 84 97
e 84 100
e 84 113
e 84 123
e 84 158
e 84 160
e 84 161
e 84 168
e 84 181
e 84 190
e 84 196
e 84 198
e 85 86
e 85 93
e 85 101
e 85 111
e 85 112
e 85 117
e 85 119
e 85 121
e 85 122
e 85 142
e 85 146
e 85 152
e 85 156
e 85 164
e 85 183
e 85 184
e 85 193
e 85 196
e 86 100
e 86 163
e 86 168
e 86 169
e 86 173
e 86 185
e 86 191
e 87 88
e 87 102
e 87 103
e 87 121
e 87 128
e 87 136
e 87 143
e 87 146
e 87 153
e 87 159
e 87 178
e 87 187
e 87 191
e 87 193
e 88 99
e 88 102
e 88 122
e 88 125
e 88 132
e 88 158
e 88 161
e 88 177
e 88 198
e 89 128
e 89 136
e 89 193
e 89 196
e 90 122
e 90 126
e 90 132
e 90 142
e 90 145
e 90 152
e 90 154
e 90 162
e 90 168
e 90 182
e 90 187
e 90 200
e 91 120
e 91 127
e 91 149
e 91 166
e 91 177
e 91 179
e 91 192
e 92 107
e 92 108
e 92 118
e 92 128
e 92 130
e 92 140
e 92 148
e 92 153
e 92 154
e 92 156
e 92 158
e 92 162
e 92 163
e 92 164
e 92 173
e 92 174
e 92 178
e 92 189
e 92 191
e 93 99
e 93 103
e 93 107
e 93 123
e 93 127
e 93 131
e 93 134
e 93 135
e 93 160
e 93 175
e 93 190
e 93 192
e 93 195
e 93 200
e 94 115
e 94 117
e 94 150
e 94 160
e 94 165
e 94 166
e 94 195
e 94 197
e 94 199
e 95 110
e 95 115
e 95 133
e 95 165
e 95 166
e 95 172
e 95 174
e 95 187
e 95 192
e 95 199
e 96 127
e 96 128
e 96 136
e 96 149
e 96 162
e 96 177
e 97 98
e 97 104
e 97 119
e 97 125
e 97 126
e 97 133
e 97 137
e 97 145
e 97 169
e 97 180
e 97 182
e 97 190
e 98 101
e 98 102
e 98 109
e 98 135
e 98 138
e 98 162
e 98 178
e 98 184
e 98 193
e 99 114
e 99 115
e 99 139
e 99 146
e 99 150
e 99 156
e 99 158
e 99 178
e 99 194
e 100 111
e 100 120
e 100 127
e 100 153
e 100 170
e 100 173
e 100 176
e 100 177
e 100 190
e 100 191
e 100 199
e 101 121
e 101 140
e 101 141
e 101 142
e 101 143
e 101 153
e 101 157
e 101 159
e 101 197
e 101 199
e 101 200
e 102 106
e 102 109
e 102 120
e 102 124
e 102 133
e 102 136
e 102 143
e 102 147
e 102 160
e 102 178
e 102 187
e 102 190
e 102 193
e 103 120
e 103 122
e 103 128
e 103 134
e 103 138
e 103 140
e 103 154
e 103 157
e 103 174
e 103 178
e 103 184
e 104 109
e 104 139
e 104 148
e 104 157
e 104 188
e 104 195
e 104 196
e 105 116
e 105 128
e 105 133
e 105 143
e 105 165
e 105 177
e 105 190
e 106 128
e 106 129
e 106 135
e 106 139
e 106 147
e 106 159
e 106 164
e 106 178
e 107 109
e 107 112
e 107 122
e 107 125
e 107 145
e 107 154
e 107 155
e 107 157
e 107 182
e 107 183
e 107 200
e 108 113
e 108 118
e 108 130
e 108 137
e 108 138
e 108 140
e 108 150
e 108 153
e 108 160
e 108 162
e 108 175
e 108 178
e 108 183
e 108 196
e 108 198
e 109 117
e 109 132
e 109 141
e 109 155
e 109 171
e 109 173
e 109 190
e 109 196
e 109 198
e 110 113
e 110 125
e 110 139
e 110 154
e 110 164
e 110 174
e 110 186
e 110 194
e 110 198
e 110 200
e 111 113
e 111 116
e 111 124
e 111 128
e 111 129
e 111 138
e 111 149
e 111 162
e 111 180
e 111 188
e 111 195
e 111 197
e 112 116
e 112 133
e 112 145
e 112 164
e 112 165
e 112 181
e 112 188
e 112 198
e 113 116
e 113 128
e 113 130
e 113 135
e 113 149
e 113 167
e 113 182
e 113 183
e 114 119
e 114 133
e 114 163
e 114 169
e 114 174
e 114 185
e 115 116
e 115 149
e 115 151
e 115 152
e 115 155
e 115 163
e 115 181
e 115 182
e 115 191
e 115 199
e 116 143
e 116 146
e 116 164
e 116 193
e 117 131
e 117 135
e 117 145
e 117 161
e 117 181
e 117 188
e 117 194
e 117 197
e 117 199
e 118 128
e 118 129
e 118 132
e 118 135
e 118 137
e 118 195
e 119 151
e 119 167
e 119 177
e 119 182
e 120 125
e 120 135
e 120 138
e 120 155
e 120 159
e 120 171
e 120 175
e 120 195
e 121 127
e 121 134
e 121 144
e 121 154
e 121 156
e 121 171
e 121 175
e 121 182
e 121 188
e 121 191
e 121 198
e 122 126
e 122 155
e 122 194
e 123 137
e 123 144
e 123 150
e 123 181
e 123 195
e 123 197
e 123 198
e 124 149
e 124 161
e 124 176
e 124 187
e 124 189
e 125 129
e 125 139
e 125 144
e 125 146
e 125 154
e 125 155
e 125 156
e 125 176
e 125 177
e 125 183
e 125 184
e 125 186
e 126 128
e 126 136
e 126 138
e 126 145
e 126 162
e 126 180
e 126 182
e 127 156
e 127 196
e 128 142
e 128 159
e 128 160
e 128 188
e 128 191
e 128 198
e 128 200
e 129 146
e 129 148
e 129 151
e 129 152
e 129 173
e 129 175
e 129 180
e 129 189
e 130 134
e 130 152
e 130 155
e 130 182
e 130 194
e 130 196
e 130 200
e 131 134
e 131 194
e 131 195
e 131 196
e 132 146
e 132 155
e 132 173
e 132 196
e 133 141
e 133 154
e 133 164
e 133 177
e 133 183
e 133 191
e 133 196
e 134 148
e 134 177
e 134 182
e 134 193
e 135 162
e 135 175
e 135 182
e 136 156
e 136 182
e 136 184
e 136 194
e 136 195
e 137 138
e 137 163
e 137 188
e 137 190
e 137 195
e 138 147
e 138 155
e 138 160
e 138 167
e 138 169
e 138 171
e 138 181
e 138 186
e 139 140
e 139 145
e 139 149
e 139 186
e 139 189
e 139 194
e 140 143
e 140 145
e 140 164
e 140 179
e 140 186
e 140 199
e 140 200
e 141 144
e 141 163
e 141 165
e 141 170
e 141 176
e 141 181
e 142 192
e 142 194
e 142 199
e 142 200
e 143 146
e 143 150
e 143 153
e 143 168
e 143 171
e 143 175
e 143 181
e 143 188
e 143 191
e 144 159
e 144 166
e 144 168
e 144 176
e 144 197
e 145 149
e 145 169
e 145 177
e 145 178
e 145 183
e 146 148
e 146 151
e 146 157
e 146 166
e 146 168
e 146 170
e 146 176
e 146 184
e 146 192
e 146 194
e 147 165
e 147 195
e 147 198
e 148 150
e 148 154
e 148 157
e 148 174
e 148 185
e 149 161
e 149 163
e 149 167
e 149 177
e 149 185
e 149 186
e 149 191
e 150 165
e 150 189
e 151 169
e 151 177
e 151 183
e 151 200
e 152 154
e 152 166
e 152 169
e 152 180
e 152 191
e 152 192
e 153 195
e 153 198
e 153 200
e 154 155
e 154 158
e 154 168
e 154 172
e 155 161
e 155 194
e 155 198
e 156 158
e 156 188
e 157 178
e 157 180
e 157 181
e 157 188
e 157 198
e 158 162
e 158 164
e 158 171
e 158 183
e 158 185
e 158 193
e 159 162
e 159 172
e 159 176
e 159 187
e 160 175
e 160 176
e 160 190
e 160 193
e 160 200
e 161 175
e 161 186
e 162 170
e 162 184
e 162 195
e 162 199
e 163 165
e 163 171
e 163 184
e 163 197
e 164 173
e 164 179
e 164 186
e 164 195
e 165 167
e 165 190
e 166 167
e 166 182
e 167 184
e 168 171
e 168 180
e 168 190
e 168 196
e 169 176
e 169 191
e 169 195
e 169 199
e 169 200
e 170 186
e 171 186
e 172 188
e 172 192
e 172 196
e 173 190
e 174 186
e 174 190
e 174 192
e 174 200
e 175 180
e 175 181
e 175 189
e 175 193
e 175 199
e 176 183
e 176 186
e 176 188
e 176 195
e 176 200
e 177 180
e 177 185
e 177 186
e 177 188
e 177 193
e 177 199
e 177 200
e 178 183
e 178 188
e 178 196
e 178 197
e 178 198
e 179 182
e 179 183
e 179 190
e 180 183
e 180 185
e 180 189
e 180 195
e 180 197
e 181 187
e 181 190
e 181 192
e 182 183
e 182 184
e 182 190
e 183 186
e 183 188
e 183 190
e 183 195
e 183 200
e 184 190
e 184 194
e 185 195
e 186 192
e 188 193
e 190 200
e 194 196
e 194 198
e 195 199
e 197 198
e 199 200
